Co Pt Mn
 1.0000000000000000
    15.9928981182370862    0.0000000000000000    0.0000000000000000
     0.0000000000000000    8.0444479049835191    0.0000000000000000
     0.0000000000000000    0.0000000000000000   10.9973751671314979
 Co  Pt  Mn 
  27  54  27
Cartesian
  0.0000000000000000  0.0000000000000000  0.0000000000000000
  0.0000000000000000  0.0000000000000000  3.6657917223771919
  0.0000000000000000  0.0000000000000000  7.3315834447543056
  0.0000000000000000  2.6814826349945253  0.0000000000000000
  0.0000000000000000  2.6814826349945253  3.6657917223771919
  0.0000000000000000  2.6814826349945253  7.3315834447543056
  0.0000000000000000  5.3629652699889938  0.0000000000000000
  0.0000000000000000  5.3629652699889938  3.6657917223771919
  0.0000000000000000  5.3629652699889938  7.3315834447543056
  5.3309660394123997  0.0000000000000000  0.0000000000000000
  5.3309660394123997  0.0000000000000000  3.6657917223771919
  5.3309660394123997  0.0000000000000000  7.3315834447543056
  5.3309660394123997  2.6814826349945253  0.0000000000000000
  5.3309660394123997  2.6814826349945253  3.6657917223771919
  5.3309660394123997  2.6814826349945253  7.3315834447543056
  5.3309660394123997  5.3629652699889938  0.0000000000000000
  5.3309660394123997  5.3629652699889938  3.6657917223771919
  5.3309660394123997  5.3629652699889938  7.3315834447543056
 10.6619320788246856  0.0000000000000000  0.0000000000000000
 10.6619320788246856  0.0000000000000000  3.6657917223771919
 10.6619320788246856  0.0000000000000000  7.3315834447543056
 10.6619320788246856  2.6814826349945253  0.0000000000000000
 10.6619320788246856  2.6814826349945253  3.6657917223771919
 10.6619320788246856  2.6814826349945253  7.3315834447543056
 10.6619320788246856  5.3629652699889938  0.0000000000000000
 10.6619320788246856  5.3629652699889938  3.6657917223771919
 10.6619320788246856  5.3629652699889938  7.3315834447543056
  1.3438159554919775  1.3407413174972342  1.8328958611885569
  3.9871500839204224  1.3407413174972342  1.8328958611885569
  1.3438159554919775  1.3407413174972342  5.4986875835657489
  3.9871500839204224  1.3407413174972342  5.4986875835657489
  1.3438159554919775  1.3407413174972342  9.1644793059429404
  3.9871500839204224  1.3407413174972342  9.1644793059429404
  1.3438159554919775  4.0222239524917596  1.8328958611885569
  3.9871500839204224  4.0222239524917596  1.8328958611885569
  1.3438159554919775  4.0222239524917596  5.4986875835657489
  3.9871500839204224  4.0222239524917596  5.4986875835657489
  1.3438159554919775  4.0222239524917596  9.1644793059429404
  3.9871500839204224  4.0222239524917596  9.1644793059429404
  1.3438159554919775  6.7037065874862849  1.8328958611885569
  3.9871500839204224  6.7037065874862849  1.8328958611885569
  1.3438159554919775  6.7037065874862849  5.4986875835657489
  3.9871500839204224  6.7037065874862849  5.4986875835657489
  1.3438159554919775  6.7037065874862849  9.1644793059429404
  3.9871500839204224  6.7037065874862849  9.1644793059429404
  6.6747819949043778  1.3407413174972342  1.8328958611885569
  9.3181161233327092  1.3407413174972342  1.8328958611885569
  6.6747819949043778  1.3407413174972342  5.4986875835657489
  9.3181161233327092  1.3407413174972342  5.4986875835657489
  6.6747819949043778  1.3407413174972342  9.1644793059429404
  9.3181161233327092  1.3407413174972342  9.1644793059429404
  6.6747819949043778  4.0222239524917596  1.8328958611885569
  9.3181161233327092  4.0222239524917596  1.8328958611885569
  6.6747819949043778  4.0222239524917596  5.4986875835657489
  9.3181161233327092  4.0222239524917596  5.4986875835657489
  6.6747819949043778  4.0222239524917596  9.1644793059429404
  9.3181161233327092  4.0222239524917596  9.1644793059429404
  6.6747819949043778  6.7037065874862849  1.8328958611885569
  9.3181161233327092  6.7037065874862849  1.8328958611885569
  6.6747819949043778  6.7037065874862849  5.4986875835657489
  9.3181161233327092  6.7037065874862849  5.4986875835657489
  6.6747819949043778  6.7037065874862849  9.1644793059429404
  9.3181161233327092  6.7037065874862849  9.1644793059429404
 12.0057480343166638  1.3407413174972342  1.8328958611885569
 14.6490821627451080  1.3407413174972342  1.8328958611885569
 12.0057480343166638  1.3407413174972342  5.4986875835657489
 14.6490821627451080  1.3407413174972342  5.4986875835657489
 12.0057480343166638  1.3407413174972342  9.1644793059429404
 14.6490821627451080  1.3407413174972342  9.1644793059429404
 12.0057480343166638  4.0222239524917596  1.8328958611885569
 14.6490821627451080  4.0222239524917596  1.8328958611885569
 12.0057480343166638  4.0222239524917596  5.4986875835657489
 14.6490821627451080  4.0222239524917596  5.4986875835657489
 12.0057480343166638  4.0222239524917596  9.1644793059429404
 14.6490821627451080  4.0222239524917596  9.1644793059429404
 12.0057480343166638  6.7037065874862849  1.8328958611885569
 14.6490821627451080  6.7037065874862849  1.8328958611885569
 12.0057480343166638  6.7037065874862849  5.4986875835657489
 14.6490821627451080  6.7037065874862849  5.4986875835657489
 12.0057480343166638  6.7037065874862849  9.1644793059429404
 14.6490821627451080  6.7037065874862849  9.1644793059429404
  2.6654830197061430  0.0000000000000000  0.0000000000000000
  2.6654830197061430  0.0000000000000000  3.6657917223771919
  2.6654830197061430  0.0000000000000000  7.3315834447543056
  2.6654830197061430  2.6814826349945253  0.0000000000000000
  2.6654830197061430  2.6814826349945253  3.6657917223771919
  2.6654830197061430  2.6814826349945253  7.3315834447543056
  2.6654830197061430  5.3629652699889938  0.0000000000000000
  2.6654830197061430  5.3629652699889938  3.6657917223771919
  2.6654830197061430  5.3629652699889938  7.3315834447543056
  7.9964490591185431  0.0000000000000000  0.0000000000000000
  7.9964490591185431  0.0000000000000000  3.6657917223771919
  7.9964490591185431  0.0000000000000000  7.3315834447543056
  7.9964490591185431  2.6814826349945253  0.0000000000000000
  7.9964490591185431  2.6814826349945253  3.6657917223771919
  7.9964490591185431  2.6814826349945253  7.3315834447543056
  7.9964490591185431  5.3629652699889938  0.0000000000000000
  7.9964490591185431  5.3629652699889938  3.6657917223771919
  7.9964490591185431  5.3629652699889938  7.3315834447543056
 13.3274150985309436  0.0000000000000000  0.0000000000000000
 13.3274150985309436  0.0000000000000000  3.6657917223771919
 13.3274150985309436  0.0000000000000000  7.3315834447543056
 13.3274150985309436  2.6814826349945253  0.0000000000000000
 13.3274150985309436  2.6814826349945253  3.6657917223771919
 13.3274150985309436  2.6814826349945253  7.3315834447543056
 13.3274150985309436  5.3629652699889938  0.0000000000000000
 13.3274150985309436  5.3629652699889938  3.6657917223771919
 13.3274150985309436  5.3629652699889938  7.3315834447543056
